10
0 554 230 106 185 309 89 251 251 127 
554 0 332 497 427 506 574 452 336 639 
230 332 0 165 106 340 274 260 47 307 
106 497 165 0 85 370 189 298 168 142 
185 427 106 85 0 395 257 317 91 221 
309 506 340 370 395 0 240 80 387 435 
89 574 274 189 257 240 0 198 306 200 
251 452 260 298 317 80 198 0 307 378 
251 336 47 168 91 387 306 307 0 309 
127 639 307 142 221 435 200 378 309 0 
